CPXPARAM_Simplex_Display                         2
CPXPARAM_TimeLimit                               7200
CPXPARAM_Read_APIEncoding                        "*"
CPXPARAM_Output_CloneLog                         1
CPXPARAM_MIP_Tolerances_MIPGap                   0.035000000000000003
CPXPARAM_MIP_Interval                            20
CPXPARAM_MIP_Strategy_VariableSelect             1
CPXPARAM_Barrier_Display                         2
Tried aggregator 1 time.
MIP Presolve eliminated 48 rows and 0 columns.
MIP Presolve added 2970000 rows and 1485000 columns.
MIP Presolve modified 504944 coefficients.
Reduced MIP has 2970298 rows, 1495000 columns, and 6094701 nonzeros.
Reduced MIP has 1495000 binaries, 0 generals, 0 SOSs, and 0 indicators.
Presolve time = 2.12 sec. (1591.25 ticks)
Probing time = 48.47 sec. (1220.03 ticks)
Tried aggregator 1 time.
MIP Presolve eliminated 1989801 rows and 504801 columns.
Reduced MIP has 980497 rows, 990199 columns, and 3095298 nonzeros.
Reduced MIP has 990199 binaries, 0 generals, 0 SOSs, and 0 indicators.
Presolve time = 9.31 sec. (3028.56 ticks)
Probing time = 18.65 sec. (404.66 ticks)
Tried aggregator 1 time.
Reduced MIP has 980497 rows, 990199 columns, and 3095298 nonzeros.
Reduced MIP has 990199 binaries, 0 generals, 0 SOSs, and 0 indicators.
Presolve time = 9.90 sec. (2044.86 ticks)
Probing time = 16.96 sec. (396.55 ticks)
Clique table members: 246434.
MIP emphasis: balance optimality and feasibility.
MIP search method: dynamic search.
Parallel mode: deterministic, using up to 32 threads.
Root relaxation solution time = 1397.13 sec. (125235.01 ticks)

        Nodes                                         Cuts/
   Node  Left     Objective  IInf  Best Integer    Best Bound    ItCnt     Gap

      0     0     4624.0738   706                   4624.0738    23853         
GUB cover cuts applied:  32
Clique cuts applied:  66
Cover cuts applied:  5
Implied bound cuts applied:  99
Flow cuts applied:  3
Mixed integer rounding cuts applied:  39
Zero-half cuts applied:  29
Gomory fractional cuts applied:  6

Root node processing (before b&c):
  Real time             = 7202.62 sec. (1093247.26 ticks)
Parallel b&c, 32 threads:
  Real time             =    0.00 sec. (0.00 ticks)
  Sync time (average)   =    0.00 sec.
  Wait time (average)   =    0.00 sec.
                          ------------
Total (root+branch&cut) = 7202.62 sec. (1093247.26 ticks)
